job_count = 28 ;
duration = [|13, 7|8, 6|14, 6|13, 1|15, 7|9, 4|5, 5|12, 4|18, 5|11, 3|14, 5|13, 4|7, 9|6, 7|7, 7|18, 2|4, 3|8, 5|18, 9|18, 6|18, 8|17, 8|12, 8|16, 2|12, 1|3, 6|19, 8|17, 8|] ;
machine_count = 2 ;
cost = [|11, 23|10, 33|16, 28|12, 26|11, 21|12, 23|15, 28|14, 25|17, 30|13, 28|15, 28|16, 22|12, 34|18, 27|19, 32|12, 37|18, 32|14, 31|15, 38|11, 20|15, 39|16, 28|11, 32|18, 25|16, 21|11, 31|18, 25|12, 35|] ;
deadline = [70, 70, 70, 70, 70, 70, 70, 70, 70, 70, 70, 70, 70, 70, 70, 70, 70, 70, 70, 70, 70, 70, 70, 70, 70, 70, 70, 70] ;
release = [0, 0, 0, 0, 0, 0, 0, 0, 0, 0, 0, 0, 0, 0, 0, 0, 0, 0, 0, 0, 0, 0, 0, 0, 0, 0, 0, 0] ;
resource = [|9, 9|8, 8|8, 8|4, 4|2, 2|2, 2|8, 8|6, 6|5, 5|5, 5|2, 2|5, 5|3, 3|1, 1|7, 7|7, 7|9, 9|8, 8|7, 7|8, 8|2, 2|1, 1|6, 6|4, 4|8, 8|1, 1|3, 3|7, 7|] ;
capacities = [10, 10] ;
